<?xml version = "1.0" standalone="yes"?>
<!-- This file has been generated by DOcplex version 2.23.222  -->
<CPLEXSolution version="1.0">
 <header
   problemName="CVRP"
   objectiveValue="16338.7"
  />
 <variables>
  <variable name="x_0_1" index="0" value="1.00000"/>
  <variable name="x_0_2" index="1" value="1.00000"/>
  <variable name="x_0_4" index="3" value="1.00000"/>
  <variable name="x_0_5" index="4" value="1.00000"/>
  <variable name="x_0_6" index="5" value="1.00000"/>
  <variable name="x_0_7" index="6" value="1.00000"/>
  <variable name="x_0_8" index="7" value="1.00000"/>
  <variable name="x_0_12" index="11" value="1.00000"/>
  <variable name="x_0_13" index="12" value="1.00000"/>
  <variable name="x_0_16" index="15" value="1.00000"/>
  <variable name="x_0_17" index="16" value="1.00000"/>
  <variable name="x_0_18" index="17" value="1.00000"/>
  <variable name="x_0_19" index="18" value="1.00000"/>
  <variable name="x_0_22" index="21" value="1.00000"/>
  <variable name="x_0_24" index="23" value="1.00000"/>
  <variable name="x_1_10" index="33" value="1.00000"/>
  <variable name="x_2_0" index="48" value="1.00000"/>
  <variable name="x_3_0" index="72" value="1.00000"/>
  <variable name="x_4_0" index="96" value="1.00000"/>
  <variable name="x_5_0" index="120" value="1.00000"/>
  <variable name="x_6_20" index="163" value="1.00000"/>
  <variable name="x_7_15" index="182" value="1.00000"/>
  <variable name="x_8_23" index="214" value="1.00000"/>
  <variable name="x_9_11" index="226" value="1.00000"/>
  <variable name="x_10_0" index="240" value="1.00000"/>
  <variable name="x_11_0" index="264" value="1.00000"/>
  <variable name="x_12_3" index="291" value="1.00000"/>
  <variable name="x_13_0" index="312" value="1.00000"/>
  <variable name="x_14_0" index="336" value="1.00000"/>
  <variable name="x_15_0" index="360" value="1.00000"/>
  <variable name="x_16_0" index="384" value="1.00000"/>
  <variable name="x_17_0" index="408" value="1.00000"/>
  <variable name="x_18_14" index="446" value="1.00000"/>
  <variable name="x_19_0" index="456" value="1.00000"/>
  <variable name="x_20_21" index="500" value="1.00000"/>
  <variable name="x_21_0" index="504" value="1.00000"/>
  <variable name="x_22_9" index="537" value="1.00000"/>
  <variable name="x_23_0" index="552" value="1.00000"/>
  <variable name="x_24_0" index="576" value="1.00000"/>
  <variable name="u_1" index="600" value="22.00000"/>
  <variable name="u_2" index="601" value="42.00000"/>
  <variable name="u_3" index="602" value="42.00000"/>
  <variable name="u_4" index="603" value="39.00000"/>
  <variable name="u_5" index="604" value="42.00000"/>
  <variable name="u_6" index="605" value="21.00000"/>
  <variable name="u_7" index="606" value="24.00000"/>
  <variable name="u_8" index="607" value="16.00000"/>
  <variable name="u_9" index="608" value="32.00000"/>
  <variable name="u_10" index="609" value="36.00000"/>
  <variable name="u_11" index="610" value="42.00000"/>
  <variable name="u_12" index="611" value="30.00000"/>
  <variable name="u_13" index="612" value="33.00000"/>
  <variable name="u_14" index="613" value="38.00000"/>
  <variable name="u_15" index="614" value="40.00000"/>
  <variable name="u_16" index="615" value="40.00000"/>
  <variable name="u_17" index="616" value="34.00000"/>
  <variable name="u_18" index="617" value="5.00000"/>
  <variable name="u_19" index="618" value="30.00000"/>
  <variable name="u_20" index="619" value="36.00000"/>
  <variable name="u_21" index="620" value="42.00000"/>
  <variable name="u_22" index="621" value="10.00000"/>
  <variable name="u_23" index="622" value="42.00000"/>
  <variable name="u_24" index="623" value="39.00000"/>
 </variables>
</CPLEXSolution>
